8
0 0 0
1 1 0
2 2 0
3 3 0
4 4 0
5 5 0
6 6 0
7 7 0
0 1 6091
0 2 9144
0 3 14587
0 4 12276
0 5 15078
0 6 10234
0 7 16575
1 0 6091
1 2 10248
1 3 17540
1 4 12414
1 5 14924
1 6 16637
1 7 10872
2 0 9144
2 1 10248
2 3 8031
2 4 3210
2 5 14269
2 6 8218
2 7 8295
3 0 14587
3 1 17540
3 2 8031
3 4 5360
3 5 6276
3 6 4615
3 7 7133
4 0 12276
4 1 12414
4 2 3210
4 3 5360
4 5 11258
4 6 7540
4 7 6260
5 0 15078
5 1 14924
5 2 14269
5 3 6276
5 4 11258
5 6 7985
5 7 8308
6 0 10234
6 1 16637
6 2 8212
6 3 4615
6 4 7540
6 5 7985
6 7 11699
7 0 16575
7 1 10872
7 2 8295
7 3 7133
7 4 6260
7 5 8308
7 6 11699
